;; Mutation-Based Equivalence Benchmark
;; Source:     AutomatArk / instance02111.smt2
;; Mutations:  bound_lower_dec, range_shrink_lo, bound_lower_dec
;; Status:     sat
;;
;; Original regex vs mutated regex
;; Equivalence check: unsat ⟺ L(R1) = L(R2)

(set-info :smt-lib-version 2.6)
(set-info :category "mutation")
(set-info :status sat)
(set-logic QF_S)

(declare-const x String)

;; R1: original
;; R2: mutated (bound_lower_dec, range_shrink_lo, bound_lower_dec)
(assert
  (str.in_re x
    (re.union (re.inter (re.union (re.++ ((_ re.loop 3 20) (re.range "A" "Z")) (re.opt (re.union (str.to_re " ") (str.to_re "\u{9}") (str.to_re "\u{a}") (str.to_re "\u{c}") (str.to_re "\u{d}"))) ((_ re.loop 2 2) (re.range "A" "Z")) ((_ re.loop 1 3) (re.range "0" "9")) (str.to_re "-") (re.union ((_ re.loop 3 3) (re.range "A" "Z")) (re.++ ((_ re.loop 1 1) (re.range "A" "Z")) ((_ re.loop 2 2) (re.range "0" "9"))))) (re.++ ((_ re.loop 1 20) (re.range "A" "Z")) (re.union (str.to_re " ") (str.to_re "\u{9}") (str.to_re "\u{a}") (str.to_re "\u{c}") (str.to_re "\u{d}")) ((_ re.loop 1 2) (re.range "A" "Z")) ((_ re.loop 1 4) (re.range "0" "9")) (str.to_re "-") ((_ re.loop 1 3) (re.range "A" "Z"))) (re.++ ((_ re.loop 1 20) (re.union (re.range "0" "9") (str.to_re ",") (re.range "0" "9") (re.range "A" "Z") (re.range "a" "z") (str.to_re "_") (str.to_re " ") (str.to_re "\u{9}") (str.to_re "\u{a}") (str.to_re "\u{c}") (str.to_re "\u{d}"))) (re.union (str.to_re " ") (str.to_re "\u{9}") (str.to_re "\u{a}") (str.to_re "\u{c}") (str.to_re "\u{d}")) ((_ re.loop 3 3) (re.range "A" "Z")) (str.to_re "-") ((_ re.loop 1 3) (re.range "0" "9"))) (re.++ (str.to_re "\u{a}") ((_ re.loop 1 20) (re.range "A" "Z")) (re.opt (re.union (str.to_re " ") (str.to_re "\u{9}") (str.to_re "\u{a}") (str.to_re "\u{c}") (str.to_re "\u{d}"))) ((_ re.loop 1 20) (re.union (re.range "0" "9") (str.to_re ",") (re.range "0" "9") (re.range "A" "Z") (re.range "a" "z") (str.to_re "_") (str.to_re " ") (str.to_re "\u{9}") (str.to_re "\u{a}") (str.to_re "\u{c}") (str.to_re "\u{d}"))))) (re.comp (re.union (re.++ ((_ re.loop 3 20) (re.range "A" "Z")) (re.opt (re.union (str.to_re " ") (str.to_re "\u{9}") (str.to_re "\u{a}") (str.to_re "\u{c}") (str.to_re "\u{d}"))) ((_ re.loop 1 2) (re.range "A" "Z")) ((_ re.loop 1 3) (re.range "0" "9")) (str.to_re "-") (re.union ((_ re.loop 3 3) (re.range "A" "Z")) (re.++ ((_ re.loop 1 1) (re.range "A" "Z")) ((_ re.loop 2 2) (re.range "0" "9"))))) (re.++ ((_ re.loop 1 20) (re.range "A" "Z")) (re.union (str.to_re " ") (str.to_re "\u{9}") (str.to_re "\u{a}") (str.to_re "\u{c}") (str.to_re "\u{d}")) ((_ re.loop 1 2) (re.range "A" "Z")) ((_ re.loop 1 4) (re.range "0" "9")) (str.to_re "-") ((_ re.loop 1 3) (re.range "A" "Z"))) (re.++ ((_ re.loop 1 20) (re.union (re.range "0" "9") (str.to_re ",") (re.range "0" "9") (re.range "A" "Z") (re.range "b" "z") (str.to_re "_") (str.to_re " ") (str.to_re "\u{9}") (str.to_re "\u{a}") (str.to_re "\u{c}") (str.to_re "\u{d}"))) (re.union (str.to_re " ") (str.to_re "\u{9}") (str.to_re "\u{a}") (str.to_re "\u{c}") (str.to_re "\u{d}")) ((_ re.loop 3 3) (re.range "A" "Z")) (str.to_re "-") ((_ re.loop 0 3) (re.range "0" "9"))) (re.++ (str.to_re "\u{a}") ((_ re.loop 1 20) (re.range "A" "Z")) (re.opt (re.union (str.to_re " ") (str.to_re "\u{9}") (str.to_re "\u{a}") (str.to_re "\u{c}") (str.to_re "\u{d}"))) ((_ re.loop 1 20) (re.union (re.range "0" "9") (str.to_re ",") (re.range "0" "9") (re.range "A" "Z") (re.range "a" "z") (str.to_re "_") (str.to_re " ") (str.to_re "\u{9}") (str.to_re "\u{a}") (str.to_re "\u{c}") (str.to_re "\u{d}"))))))) (re.inter (re.comp (re.union (re.++ ((_ re.loop 3 20) (re.range "A" "Z")) (re.opt (re.union (str.to_re " ") (str.to_re "\u{9}") (str.to_re "\u{a}") (str.to_re "\u{c}") (str.to_re "\u{d}"))) ((_ re.loop 2 2) (re.range "A" "Z")) ((_ re.loop 1 3) (re.range "0" "9")) (str.to_re "-") (re.union ((_ re.loop 3 3) (re.range "A" "Z")) (re.++ ((_ re.loop 1 1) (re.range "A" "Z")) ((_ re.loop 2 2) (re.range "0" "9"))))) (re.++ ((_ re.loop 1 20) (re.range "A" "Z")) (re.union (str.to_re " ") (str.to_re "\u{9}") (str.to_re "\u{a}") (str.to_re "\u{c}") (str.to_re "\u{d}")) ((_ re.loop 1 2) (re.range "A" "Z")) ((_ re.loop 1 4) (re.range "0" "9")) (str.to_re "-") ((_ re.loop 1 3) (re.range "A" "Z"))) (re.++ ((_ re.loop 1 20) (re.union (re.range "0" "9") (str.to_re ",") (re.range "0" "9") (re.range "A" "Z") (re.range "a" "z") (str.to_re "_") (str.to_re " ") (str.to_re "\u{9}") (str.to_re "\u{a}") (str.to_re "\u{c}") (str.to_re "\u{d}"))) (re.union (str.to_re " ") (str.to_re "\u{9}") (str.to_re "\u{a}") (str.to_re "\u{c}") (str.to_re "\u{d}")) ((_ re.loop 3 3) (re.range "A" "Z")) (str.to_re "-") ((_ re.loop 1 3) (re.range "0" "9"))) (re.++ (str.to_re "\u{a}") ((_ re.loop 1 20) (re.range "A" "Z")) (re.opt (re.union (str.to_re " ") (str.to_re "\u{9}") (str.to_re "\u{a}") (str.to_re "\u{c}") (str.to_re "\u{d}"))) ((_ re.loop 1 20) (re.union (re.range "0" "9") (str.to_re ",") (re.range "0" "9") (re.range "A" "Z") (re.range "a" "z") (str.to_re "_") (str.to_re " ") (str.to_re "\u{9}") (str.to_re "\u{a}") (str.to_re "\u{c}") (str.to_re "\u{d}")))))) (re.union (re.++ ((_ re.loop 3 20) (re.range "A" "Z")) (re.opt (re.union (str.to_re " ") (str.to_re "\u{9}") (str.to_re "\u{a}") (str.to_re "\u{c}") (str.to_re "\u{d}"))) ((_ re.loop 1 2) (re.range "A" "Z")) ((_ re.loop 1 3) (re.range "0" "9")) (str.to_re "-") (re.union ((_ re.loop 3 3) (re.range "A" "Z")) (re.++ ((_ re.loop 1 1) (re.range "A" "Z")) ((_ re.loop 2 2) (re.range "0" "9"))))) (re.++ ((_ re.loop 1 20) (re.range "A" "Z")) (re.union (str.to_re " ") (str.to_re "\u{9}") (str.to_re "\u{a}") (str.to_re "\u{c}") (str.to_re "\u{d}")) ((_ re.loop 1 2) (re.range "A" "Z")) ((_ re.loop 1 4) (re.range "0" "9")) (str.to_re "-") ((_ re.loop 1 3) (re.range "A" "Z"))) (re.++ ((_ re.loop 1 20) (re.union (re.range "0" "9") (str.to_re ",") (re.range "0" "9") (re.range "A" "Z") (re.range "b" "z") (str.to_re "_") (str.to_re " ") (str.to_re "\u{9}") (str.to_re "\u{a}") (str.to_re "\u{c}") (str.to_re "\u{d}"))) (re.union (str.to_re " ") (str.to_re "\u{9}") (str.to_re "\u{a}") (str.to_re "\u{c}") (str.to_re "\u{d}")) ((_ re.loop 3 3) (re.range "A" "Z")) (str.to_re "-") ((_ re.loop 0 3) (re.range "0" "9"))) (re.++ (str.to_re "\u{a}") ((_ re.loop 1 20) (re.range "A" "Z")) (re.opt (re.union (str.to_re " ") (str.to_re "\u{9}") (str.to_re "\u{a}") (str.to_re "\u{c}") (str.to_re "\u{d}"))) ((_ re.loop 1 20) (re.union (re.range "0" "9") (str.to_re ",") (re.range "0" "9") (re.range "A" "Z") (re.range "a" "z") (str.to_re "_") (str.to_re " ") (str.to_re "\u{9}") (str.to_re "\u{a}") (str.to_re "\u{c}") (str.to_re "\u{d}")))))))))

(check-sat)
(exit)
